 200 60 
 53 57 92 97 22 15 11 65 83 26 27 55 
 68 27 72 2 26 87 21 80 81 64 82 50 
 92 7 30 22 84 94 21 60 74 79 15 27 
 80 46 38 6 11 85 25 12 24 75 94 88 
 24 91 92 68 82 4 49 61 34 98 1 86 
 
 53 
 1 2 3 4 5 6 7 8 9 10 11 12 
 13 14 15 16 17 18 19 20 21 22 25 26 
 27 28 29 31 32 33 34 35 36 37 38 39 
 40 41 42 43 44 45 46 47 48 49 50 51 
 52 53 55 56 60 
 7 
 5 20 25 30 44 46 59 
 11 
 3 12 13 16 26 31 43 47 56 58 60 
 29 
 1 2 4 5 6 12 13 14 15 17 23 25 
 27 31 34 35 37 38 40 43 45 47 51 53 
 54 55 56 59 60 
 30 
 1 2 4 5 6 7 8 10 12 13 14 15 
 18 19 21 22 24 25 26 28 30 31 33 34 
 38 39 46 51 52 53 
 46 
 1 2 4 6 7 8 9 10 11 12 13 18 
 20 21 22 23 25 26 27 28 29 30 31 32 
 34 36 37 38 39 40 41 42 43 46 47 48 
 50 51 53 54 55 56 57 58 59 60 
 51 
 1 2 3 4 5 6 7 8 9 11 12 13 
 14 15 16 17 18 19 20 21 22 23 24 25 
 26 27 28 29 30 31 34 35 36 37 38 40 
 41 43 45 46 47 49 50 51 52 53 56 57 
 58 59 60 
 51 
 1 2 3 5 6 7 8 9 11 13 14 16 
 17 18 19 21 22 23 24 25 28 29 30 31 
 32 33 34 35 38 39 40 41 42 43 44 45 
 46 47 48 49 50 51 52 53 54 55 56 57 
 58 59 60 
 7 
 15 20 28 29 35 40 48 
 15 
 9 10 14 17 29 30 35 40 48 49 52 53 
 55 58 60 
 29 
 1 3 5 8 11 12 13 14 15 17 18 19 
 21 23 24 25 29 32 33 34 35 40 43 45 
 47 49 51 52 58 
 47 
 1 2 3 4 5 8 10 12 13 14 16 17 
 18 19 22 23 24 26 27 28 29 30 31 32 
 33 35 36 38 39 40 41 42 44 45 46 47 
 48 49 50 51 52 54 55 57 58 59 60 
 46 
 1 2 3 5 7 8 9 11 12 13 14 15 
 16 18 19 20 22 23 24 25 27 28 29 30 
 32 33 34 35 36 37 39 40 41 42 43 45 
 46 47 48 49 50 53 54 55 58 59 
 32 
 1 2 3 4 6 8 9 11 18 19 20 25 
 26 27 30 31 33 35 38 41 42 44 45 48 
 50 51 52 55 56 57 59 60 
 13 
 8 10 19 20 24 28 36 41 44 47 50 58 
 59 
 52 
 1 2 4 5 6 7 8 9 12 13 14 15 
 16 18 19 20 22 23 24 25 26 27 28 29 
 30 31 33 34 36 37 38 39 40 41 42 43 
 44 45 46 48 49 50 51 52 53 54 55 56 
 57 58 59 60 
 30 
 1 3 4 8 10 11 14 15 16 17 19 21 
 24 25 29 30 31 34 35 37 38 39 40 45 
 47 48 55 56 59 60 
 41 
 2 4 5 6 8 10 11 14 16 18 19 20 
 22 23 24 25 29 30 31 32 33 34 36 37 
 38 40 41 42 43 45 47 48 50 51 52 53 
 54 55 56 58 59 
 34 
 1 2 3 8 11 13 15 16 17 20 24 25 
 28 29 30 32 36 37 38 39 41 43 44 45 
 47 48 51 52 53 55 56 57 58 59 
 49 
 1 2 4 5 6 7 8 10 11 12 13 15 
 16 17 18 19 20 21 24 25 26 27 28 29 
 30 32 33 34 35 36 38 39 40 41 42 43 
 44 45 46 48 49 50 52 53 54 56 58 59 
 60 
 43 
 1 2 4 5 6 9 11 12 13 15 17 19 
 21 24 25 26 27 28 31 32 33 35 36 37 
 38 39 40 42 43 45 46 47 48 49 50 51 
 53 54 55 57 58 59 60 
 2 
 36 54 
 17 
 2 3 4 5 7 14 15 18 22 25 28 29 
 31 41 47 48 49 
 56 
 1 2 3 4 5 6 7 8 9 10 11 12 
 13 14 15 16 17 18 19 20 21 22 23 25 
 27 28 29 30 31 32 33 34 36 37 38 39 
 40 41 42 44 45 46 47 48 49 50 51 52 
 53 54 55 56 57 58 59 60 
 42 
 1 2 3 6 7 8 9 11 12 13 14 15 
 17 20 22 23 24 27 28 30 31 34 35 36 
 37 38 40 43 44 45 46 47 48 49 51 52 
 53 54 56 58 59 60 
 54 
 1 2 3 4 5 6 7 8 9 10 11 12 
 13 14 15 16 17 18 19 20 21 24 25 26 
 27 28 29 30 31 32 33 34 35 37 38 39 
 41 42 43 44 45 46 47 48 49 50 52 53 
 54 55 56 57 58 59 
 48 
 1 3 4 5 6 9 10 11 12 14 17 18 
 19 20 21 22 23 24 25 26 27 28 30 31 
 32 34 35 36 37 38 39 40 41 42 43 44 
 45 47 48 49 50 51 53 54 55 56 59 60 
 50 
 1 2 3 4 5 7 8 9 10 11 12 13 
 14 15 16 18 19 20 22 23 24 25 26 27 
 28 29 30 31 32 34 35 36 37 40 41 42 
 43 44 46 47 48 49 51 52 53 55 56 57 
 59 60 
 10 
 3 17 18 20 25 27 32 41 49 51 
 58 
 1 2 3 4 5 6 7 8 9 10 11 12 
 13 14 15 16 17 18 19 20 21 22 23 24 
 25 26 27 28 29 30 31 32 33 35 36 37 
 38 39 40 41 42 43 44 45 47 48 49 50 
 51 52 53 54 55 56 57 58 59 60 
 57 
 1 2 3 4 5 6 7 8 9 10 11 12 
 13 14 15 16 17 18 19 20 21 22 23 24 
 25 26 27 28 29 30 31 32 34 35 37 39 
 40 41 42 43 44 45 46 47 48 49 50 51 
 52 53 54 55 56 57 58 59 60 
 27 
 2 5 7 11 12 17 19 21 22 23 24 27 
 28 30 32 33 35 37 40 44 45 47 48 49 
 53 55 58 
 15 
 4 5 7 12 16 17 19 27 37 38 40 45 
 49 53 54 
 40 
 1 2 3 4 5 7 8 10 12 13 14 15 
 16 20 21 23 25 26 27 28 29 30 31 32 
 34 38 39 40 41 44 45 46 48 50 51 53 
 54 57 58 60 
 26 
 3 5 7 10 12 13 14 15 18 19 23 29 
 32 34 35 37 39 41 43 46 47 48 53 57 
 58 59 
 28 
 2 3 4 9 10 15 16 17 19 22 24 25 
 27 29 32 35 40 41 44 45 47 48 49 50 
 53 57 59 60 
 54 
 2 3 4 5 6 8 9 10 11 12 13 14 
 15 16 17 18 20 21 22 24 25 26 28 29 
 30 31 32 33 34 35 36 37 38 39 40 41 
 42 43 44 45 46 47 48 49 50 52 53 54 
 55 56 57 58 59 60 
 39 
 5 6 8 10 11 12 13 14 16 20 21 22 
 24 26 28 29 30 31 32 35 36 38 39 40 
 43 44 45 47 48 50 51 52 53 54 55 56 
 57 58 60 
 60 
 1 2 3 4 5 6 7 8 9 10 11 12 
 13 14 15 16 17 18 19 20 21 22 23 24 
 25 26 27 28 29 30 31 32 33 34 35 36 
 37 38 39 40 41 42 43 44 45 46 47 48 
 49 50 51 52 53 54 55 56 57 58 59 60 
 43 
 1 2 3 4 5 6 7 11 12 13 14 15 
 16 17 18 21 22 25 26 27 28 29 31 32 
 34 35 36 37 38 39 40 41 42 45 48 50 
 51 52 53 54 56 59 60 
 46 
 1 2 3 4 5 6 7 9 10 12 13 14 
 15 16 18 20 21 25 27 28 29 31 32 33 
 34 35 36 37 38 39 40 42 43 46 47 48 
 49 50 51 52 53 55 56 58 59 60 
 14 
 1 6 9 10 12 16 29 33 38 42 44 55 
 59 60 
 8 
 16 37 40 41 44 46 48 58 
 50 
 1 2 3 4 6 9 10 11 12 13 14 15 
 16 17 18 19 20 21 22 24 25 26 27 28 
 29 30 32 33 34 35 36 37 39 40 41 42 
 44 45 46 47 48 50 52 53 54 55 56 57 
 58 60 
 22 
 1 3 6 7 9 13 14 16 18 21 23 32 
 36 38 40 41 44 46 47 50 55 58 
 58 
 1 2 3 4 5 6 7 8 9 10 11 12 
 13 14 15 16 17 18 19 20 22 23 24 25 
 26 27 28 29 30 31 32 33 34 35 36 37 
 38 39 40 41 42 43 44 45 46 47 48 49 
 50 51 52 53 54 55 56 57 58 60 
 40 
 1 2 4 5 6 7 9 11 12 14 15 16 
 17 18 19 20 23 24 26 27 28 29 30 32 
 33 34 35 37 38 39 42 43 46 47 49 50 
 52 53 55 59 
 50 
 1 2 5 6 7 8 9 10 11 12 13 14 
 15 16 17 18 19 21 22 23 25 26 27 28 
 29 30 32 34 35 36 37 38 40 41 42 43 
 44 45 46 47 48 49 50 52 53 54 55 56 
 59 60 
 25 
 3 4 9 10 12 13 14 15 16 18 19 23 
 25 29 30 35 39 42 43 45 51 53 55 58 
 59 
 34 
 2 3 4 5 6 16 18 20 21 22 23 26 
 28 30 32 33 34 35 38 39 40 41 44 48 
 49 50 53 54 55 56 57 58 59 60 
 17 
 9 10 12 20 24 38 39 40 43 46 48 49 
 52 54 55 56 57 
 44 
 1 2 3 4 5 6 8 9 10 11 14 15 
 16 19 21 24 25 26 29 30 31 32 33 34 
 35 36 37 38 39 40 41 42 43 44 46 48 
 51 52 53 54 56 57 59 60 
 25 
 1 2 5 8 9 10 13 16 18 19 22 26 
 27 28 29 31 32 34 40 46 48 52 53 56 
 59 
 4 
 2 18 33 50 
 35 
 1 2 3 5 6 7 10 11 13 14 16 21 
 23 25 28 29 30 33 35 37 38 40 41 43 
 44 47 48 51 52 53 55 56 58 59 60 
 58 
 1 2 3 4 5 6 7 8 9 10 11 12 
 13 14 15 16 17 18 19 20 21 22 23 24 
 25 26 27 28 29 30 31 32 33 34 35 37 
 38 39 40 41 42 43 44 45 46 47 48 49 
 50 52 53 54 55 56 57 58 59 60 
 25 
 2 3 5 6 7 10 11 13 14 23 24 26 
 27 29 31 32 34 35 36 46 48 49 53 56 
 59 
 15 
 12 13 16 18 19 20 21 23 27 36 37 44 
 50 51 55 
 4 
 2 29 39 51 
 56 
 1 2 3 4 5 6 7 8 9 10 11 12 
 13 14 15 17 18 19 20 21 22 23 25 26 
 27 28 29 30 32 33 34 35 36 37 38 39 
 40 41 43 44 45 46 47 48 49 50 51 52 
 53 54 55 56 57 58 59 60 
 4 
 31 35 36 46 
 18 
 1 2 4 5 7 9 12 13 14 16 32 39 
 44 46 50 54 57 58 
 56 
 1 2 3 4 5 6 8 9 10 12 13 14 
 15 16 17 18 19 20 21 22 23 24 25 26 
 27 28 29 30 31 32 33 34 35 37 38 39 
 40 41 42 43 44 45 46 47 48 49 50 51 
 52 53 54 56 57 58 59 60 
 14 
 3 7 8 17 20 22 24 25 26 27 36 40 
 51 57 
 28 
 4 5 6 8 11 12 13 14 16 17 19 22 
 23 25 28 29 30 34 39 40 41 42 44 48 
 53 57 58 60 
 51 
 1 2 3 4 6 7 8 9 10 11 12 13 
 14 16 17 19 20 21 22 24 26 27 28 30 
 31 32 33 34 36 37 38 39 40 41 42 43 
 44 45 46 47 48 49 51 53 54 55 56 57 
 58 59 60 
 51 
 1 2 3 4 5 6 7 8 10 12 13 14 
 15 16 17 19 21 22 23 24 25 26 27 28 
 29 30 31 32 33 35 38 39 40 41 42 43 
 44 46 47 48 49 50 51 52 53 54 55 57 
 58 59 60 
 38 
 2 4 5 6 8 9 10 11 13 14 17 18 
 19 20 21 22 24 26 27 29 30 32 33 34 
 36 37 39 40 42 45 46 51 52 55 56 57 
 58 60 
 8 
 14 27 29 35 40 50 52 58 
 35 
 1 3 5 7 8 9 11 12 13 14 15 16 
 17 18 19 20 21 22 23 26 29 34 36 38 
 40 41 42 43 45 46 47 48 49 50 60 
 45 
 2 3 4 5 6 8 9 10 11 13 14 16 
 17 18 19 21 22 23 24 25 26 28 30 32 
 36 37 38 39 40 42 43 44 45 47 48 49 
 50 51 53 54 55 56 58 59 60 
 10 
 3 26 32 42 47 50 52 54 55 56 
 47 
 2 5 7 8 9 13 14 15 17 18 19 20 
 22 23 24 25 26 27 29 30 31 32 34 35 
 36 37 38 39 40 41 44 45 46 47 48 49 
 50 51 52 53 54 55 56 57 58 59 60 
 46 
 1 2 3 7 8 9 11 12 13 14 16 17 
 18 19 20 21 22 23 25 27 28 29 31 32 
 34 35 36 38 39 40 41 42 43 44 46 47 
 50 51 52 53 54 55 56 57 58 60 
 38 
 1 2 4 8 9 10 12 13 14 16 20 21 
 22 24 26 27 29 33 35 36 37 38 39 40 
 41 42 43 44 47 48 50 51 52 54 55 56 
 59 60 
 51 
 2 3 4 5 7 9 10 11 12 14 15 16 
 18 19 20 21 22 23 24 25 26 27 28 29 
 30 31 32 33 36 37 38 39 40 41 42 43 
 45 46 47 49 50 51 52 53 54 55 56 57 
 58 59 60 
 46 
 1 2 3 4 5 6 7 8 9 10 11 12 
 13 14 17 18 20 21 22 23 25 26 28 29 
 30 31 33 35 37 38 39 40 41 42 43 45 
 47 48 50 51 52 54 55 56 57 58 
 7 
 3 7 8 18 29 37 49 
 29 
 1 4 7 8 12 14 17 20 21 22 23 26 
 28 29 30 33 34 35 36 41 43 44 47 50 
 51 52 54 57 58 
 36 
 1 2 3 5 8 9 11 12 13 14 17 20 
 22 24 25 28 29 31 32 33 35 36 38 39 
 40 41 42 44 46 47 49 53 54 55 57 60 
 32 
 1 2 7 8 9 12 14 15 17 18 19 21 
 23 24 28 29 31 32 33 36 39 45 46 47 
 48 49 51 52 53 54 57 59 
 14 
 5 9 17 19 26 34 35 37 39 45 46 47 
 52 55 
 36 
 3 4 5 6 7 8 10 12 13 14 15 18 
 19 20 21 23 26 29 31 32 33 34 36 37 
 39 40 41 42 45 47 50 52 55 56 59 60 
 4 
 14 34 53 57 
 47 
 1 2 3 4 6 7 8 9 10 11 12 13 
 14 15 16 18 19 20 21 22 24 25 26 28 
 30 31 32 33 34 36 37 38 39 40 41 42 
 43 44 46 47 48 49 51 52 53 56 60 
 24 
 3 5 6 9 12 14 15 17 20 23 24 28 
 31 33 34 37 42 46 49 52 54 55 57 60 
 20 
 10 14 20 23 29 31 33 35 37 38 42 48 
 49 52 53 54 55 57 59 60 
 43 
 2 3 4 8 9 10 11 12 13 14 16 17 
 19 20 21 23 25 26 27 28 29 30 31 32 
 34 35 39 40 41 42 44 45 46 48 49 50 
 51 52 53 54 55 59 60 
 42 
 1 2 3 4 5 6 9 11 12 14 15 16 
 17 19 20 24 25 27 28 30 36 38 39 40 
 41 42 43 44 46 47 48 49 50 51 52 53 
 54 55 57 58 59 60 
 36 
 5 6 7 9 10 11 14 17 18 21 22 23 
 24 26 27 29 30 31 33 35 36 37 38 40 
 41 42 43 45 46 48 50 52 53 55 56 59 
 2 
 20 46 
 3 
 12 41 59 
 14 
 3 7 13 14 18 22 23 27 29 32 34 37 
 52 54 
 32 
 3 4 5 6 9 13 14 16 17 18 21 22 
 24 26 27 28 29 31 32 33 35 36 37 38 
 40 42 43 44 46 50 51 54 
 34 
 1 3 4 5 6 9 11 13 16 18 19 22 
 23 24 27 28 32 33 34 35 36 40 42 43 
 44 46 47 48 50 51 53 54 57 59 
 3 
 28 40 46 
 2 
 15 40 
 18 
 1 3 4 9 11 12 18 22 23 26 31 32 
 38 40 42 48 52 57 
 42 
 1 2 3 4 6 7 9 11 12 13 15 17 
 18 19 22 23 24 25 26 28 30 31 32 33 
 36 38 39 41 42 43 44 45 46 49 50 51 
 52 53 56 57 59 60 
 18 
 1 2 6 7 13 14 16 17 25 26 27 28 
 34 40 49 51 55 58 
 36 
 1 2 4 5 6 7 8 9 11 13 15 16 
 18 21 22 23 24 27 29 33 35 37 38 44 
 45 46 47 48 50 51 53 55 56 57 58 59 
 24 
 1 2 4 9 10 14 19 22 23 24 30 31 
 34 37 41 44 46 48 49 50 51 52 53 58 
 28 
 1 3 7 8 9 12 13 15 16 24 27 28 
 33 36 37 38 39 40 42 44 45 47 50 51 
 55 57 58 59 
 44 
 1 2 5 7 11 12 13 14 15 16 17 18 
 20 21 22 23 25 26 31 32 33 34 35 36 
 37 38 39 40 42 43 44 45 46 47 48 49 
 51 54 55 56 57 58 59 60 
 12 
 2 4 8 16 21 29 30 35 36 42 45 59 
 36 
 1 3 4 5 6 7 11 14 16 17 18 20 
 22 23 24 25 28 29 30 32 34 36 37 38 
 39 40 41 42 44 45 48 49 50 52 56 60 
 35 
 2 3 5 7 9 11 13 15 16 17 18 21 
 23 25 26 27 28 29 30 31 35 36 37 39 
 40 41 42 43 44 48 49 51 53 58 59 
 31 
 1 2 3 4 6 7 10 11 13 14 15 16 
 17 19 20 21 23 26 28 31 32 34 35 36 
 37 40 41 48 50 53 57 
 3 
 8 31 51 
 51 
 1 2 3 5 6 7 8 9 10 11 12 13 
 14 15 16 17 18 20 21 22 23 24 25 26 
 27 28 29 31 32 36 37 38 39 40 41 42 
 43 45 46 47 48 49 50 51 53 54 55 56 
 57 58 60 
 26 
 3 5 6 7 9 11 18 21 22 24 32 36 
 37 41 42 44 46 47 51 52 53 54 57 58 
 59 60 
 34 
 1 2 5 8 9 10 12 14 16 17 18 19 
 21 22 23 25 26 29 30 31 32 33 34 35 
 38 44 46 47 50 54 55 57 59 60 
 2 
 11 18 
 13 
 1 22 23 32 33 35 36 39 43 46 51 55 
 58 
 7 
 2 4 25 33 40 41 45 
 36 
 1 4 7 8 9 12 13 15 17 18 20 21 
 22 23 25 26 29 31 32 33 35 36 39 41 
 42 43 46 49 50 52 53 55 56 57 59 60 
 41 
 2 3 4 5 7 9 10 11 13 14 15 17 
 18 20 21 22 23 27 28 30 31 32 34 35 
 36 37 40 42 44 46 47 48 49 50 52 54 
 55 56 57 58 59 
 15 
 2 3 5 14 18 20 22 29 30 34 43 45 
 46 51 54 
 43 
 2 3 4 5 6 7 9 10 11 12 13 14 
 17 18 20 22 23 25 26 29 30 32 34 35 
 36 37 38 39 40 41 42 43 45 46 47 48 
 50 53 54 55 57 58 60 
 60 
 1 2 3 4 5 6 7 8 9 10 11 12 
 13 14 15 16 17 18 19 20 21 22 23 24 
 25 26 27 28 29 30 31 32 33 34 35 36 
 37 38 39 40 41 42 43 44 45 46 47 48 
 49 50 51 52 53 54 55 56 57 58 59 60 
 23 
 1 2 3 5 6 7 8 12 17 18 21 24 
 27 30 35 38 39 43 46 49 55 58 60 
 20 
 7 8 13 17 18 19 21 23 25 26 30 31 
 32 40 47 49 51 56 57 58 
 2 
 47 57 
 27 
 1 2 4 6 11 13 19 22 23 24 26 31 
 35 36 37 44 45 46 47 48 50 51 52 54 
 56 58 59 
 34 
 1 2 5 7 8 9 12 13 14 15 17 18 
 20 21 22 23 27 29 31 32 36 37 38 39 
 40 41 48 51 52 53 54 56 59 60 
 4 
 14 37 45 57 
 17 
 13 16 17 23 30 31 34 35 38 44 46 48 
 49 50 51 52 59 
 26 
 1 5 6 7 10 11 16 19 20 24 28 29 
 30 32 33 36 40 41 42 43 45 48 49 52 
 56 57 
 47 
 1 2 4 6 7 8 9 10 11 12 14 15 
 16 17 18 21 22 23 25 27 28 29 30 31 
 34 35 36 38 39 40 41 42 43 44 45 46 
 47 48 49 50 52 53 54 55 57 58 60 
 58 
 1 2 4 5 6 7 8 9 10 11 12 13 
 14 15 16 17 18 19 20 21 22 23 24 25 
 26 27 28 29 30 31 32 33 34 35 36 37 
 38 39 40 41 42 43 44 45 46 47 48 49 
 50 51 52 53 54 55 56 57 58 60 
 18 
 7 9 10 14 15 17 19 26 31 35 36 38 
 40 44 45 48 54 60 
 48 
 1 5 6 7 8 9 10 11 12 13 14 15 
 16 17 18 19 20 21 22 23 24 25 26 27 
 30 31 32 33 34 35 38 39 40 42 43 44 
 45 46 47 48 49 50 51 55 56 57 59 60 
 56 
 1 2 3 4 5 6 7 10 11 12 13 14 
 15 16 17 18 19 20 21 22 23 24 25 26 
 27 28 29 30 31 32 33 34 35 36 37 39 
 40 41 42 43 44 45 46 47 48 49 50 51 
 52 53 54 55 57 58 59 60 
 54 
 1 2 3 4 5 6 7 8 9 10 11 12 
 13 14 15 16 17 19 20 21 22 23 24 25 
 26 27 28 29 31 32 33 34 35 36 37 38 
 39 40 41 42 43 46 47 48 49 50 51 52 
 54 55 56 57 59 60 
 18 
 1 5 6 13 23 24 26 30 33 37 38 40 
 41 47 48 50 53 58 
 2 
 44 47 
 49 
 1 3 4 5 6 7 8 9 10 11 12 13 
 14 16 17 19 20 21 22 24 26 28 29 30 
 32 33 34 36 37 39 40 41 42 43 44 45 
 46 47 48 49 50 51 52 53 54 56 57 58 
 59 
 54 
 2 3 4 5 6 7 8 9 10 11 12 13 
 15 16 17 18 19 20 21 22 23 24 25 26 
 27 28 29 31 32 33 34 37 39 40 41 42 
 43 44 45 46 47 48 49 50 51 52 53 54 
 55 56 57 58 59 60 
 5 
 7 9 10 14 55 
 26 
 1 2 3 4 6 8 11 13 14 18 20 21 
 27 37 40 43 45 47 48 49 51 52 54 55 
 59 60 
 21 
 7 16 19 20 22 23 25 28 31 37 41 42 
 46 48 49 51 52 55 58 59 60 
 46 
 2 3 5 8 11 13 15 16 17 18 20 21 
 22 23 24 25 26 27 28 30 32 33 34 35 
 36 37 38 39 40 41 42 43 44 45 47 48 
 49 50 51 52 53 54 56 57 58 59 
 46 
 1 2 3 4 5 6 7 8 9 11 13 14 
 16 17 18 20 21 22 24 25 26 27 28 29 
 30 31 32 33 36 37 38 39 40 41 42 43 
 45 48 50 51 53 54 55 57 58 59 
 19 
 1 7 9 14 15 19 21 28 29 30 35 36 
 38 40 45 49 51 56 60 
 4 
 7 31 40 58 
 27 
 1 2 3 4 7 8 10 13 14 19 22 23 
 24 29 30 32 33 37 42 44 45 46 47 49 
 52 56 57 
 52 
 1 2 3 4 6 7 8 10 11 12 13 14 
 15 16 17 18 19 23 24 25 26 27 28 29 
 30 32 33 34 35 36 37 38 39 40 42 43 
 44 45 47 48 49 50 51 52 53 54 55 56 
 57 58 59 60 
 53 
 1 3 4 6 7 8 9 10 11 12 13 14 
 15 16 17 18 19 20 21 22 23 24 25 26 
 27 28 29 30 31 32 33 34 35 36 37 38 
 39 40 41 42 44 45 46 49 50 51 52 54 
 55 56 57 58 59 
 26 
 1 2 4 5 6 7 8 10 11 12 19 20 
 21 23 25 29 31 32 36 38 39 40 43 47 
 51 57 
 6 
 2 4 6 7 29 53 
 39 
 1 3 4 6 7 8 9 10 11 14 16 18 
 19 20 22 23 24 25 26 27 30 31 35 39 
 41 42 43 44 46 47 48 49 50 51 52 54 
 56 58 60 
 28 
 1 4 5 7 11 12 16 17 19 27 30 31 
 33 34 39 40 41 42 43 45 48 51 52 53 
 54 57 58 60 
 7 
 3 6 8 19 20 23 54 
 58 
 1 2 3 4 5 6 7 8 9 10 11 12 
 13 14 15 16 18 19 20 21 22 23 24 25 
 26 27 28 29 30 31 32 33 34 35 36 37 
 38 39 40 41 42 43 44 45 46 47 48 49 
 50 51 52 54 55 56 57 58 59 60 
 59 
 1 2 3 4 5 6 7 8 9 10 11 12 
 13 14 15 16 17 18 19 20 21 22 23 24 
 25 26 27 28 29 30 31 32 33 34 35 36 
 37 38 39 40 41 42 43 44 45 46 47 48 
 50 51 52 53 54 55 56 57 58 59 60 
 29 
 3 4 5 6 7 8 13 16 17 19 21 22 
 25 26 28 32 34 35 36 37 38 39 40 41 
 48 50 51 52 55 
 42 
 1 2 3 4 5 7 8 12 13 14 15 16 
 18 19 22 25 27 28 29 30 31 32 34 36 
 37 38 40 41 43 45 46 48 49 50 51 52 
 53 54 55 56 58 60 
 47 
 2 3 4 5 7 8 9 11 13 14 15 16 
 17 19 22 23 24 25 26 27 28 31 32 33 
 34 35 37 38 39 40 41 42 44 46 47 48 
 49 50 51 52 53 54 55 56 57 58 60 
 40 
 1 2 3 4 6 7 8 10 11 13 14 17 
 18 19 20 22 23 26 27 31 32 34 35 36 
 37 38 39 40 41 42 45 46 47 50 51 52 
 54 57 58 59 
 2 
 37 46 
 3 
 9 23 24 
 5 
 7 24 27 33 37 
 12 
 2 5 7 12 17 19 22 27 33 36 37 59 
 18 
 1 9 12 16 23 24 25 26 28 30 33 39 
 43 47 48 53 55 59 
 20 
 3 9 14 15 16 19 20 22 27 28 30 35 
 40 41 42 45 56 57 58 59 
 18 
 7 10 11 13 16 18 21 22 23 25 33 34 
 44 46 48 51 52 55 
 21 
 1 6 7 11 12 15 22 23 27 29 34 36 
 39 45 48 49 54 55 56 58 59 
 44 
 1 2 3 6 7 9 11 12 14 15 17 20 
 21 22 23 24 25 26 28 30 32 33 35 36 
 37 38 39 41 42 44 45 46 47 48 49 50 
 51 53 54 55 56 57 58 60 
 19 
 1 4 11 13 14 25 31 32 35 36 37 38 
 39 40 42 44 46 55 59 
 49 
 1 2 3 4 5 6 8 10 11 12 14 15 
 16 17 18 19 20 23 24 25 26 27 28 29 
 30 31 33 34 35 38 39 40 41 42 43 44 
 45 46 47 48 49 50 51 52 54 56 58 59 
 60 
 57 
 1 2 3 4 5 6 7 8 9 10 11 12 
 13 14 15 16 17 18 20 21 22 23 24 25 
 26 27 28 29 30 31 32 33 34 35 36 37 
 38 39 40 41 43 44 46 47 48 49 50 51 
 52 53 54 55 56 57 58 59 60 
 37 
 1 2 4 5 7 8 9 13 16 17 19 20 
 21 23 24 25 26 27 28 29 30 31 32 33 
 37 41 43 44 45 46 51 52 54 56 58 59 
 60 
 53 
 1 2 3 4 5 6 7 9 10 11 12 13 
 14 15 16 17 18 19 20 21 22 23 24 25 
 26 27 28 29 30 31 32 33 34 35 36 37 
 38 39 40 41 42 43 45 46 47 48 49 51 
 52 54 58 59 60 
 39 
 2 3 4 5 6 10 13 15 16 18 19 20 
 21 23 24 25 26 27 29 30 32 35 36 39 
 40 41 43 45 47 48 49 50 52 54 55 57 
 58 59 60 
 14 
 9 14 21 23 32 39 41 44 46 48 54 56 
 57 58 
 33 
 2 3 4 5 7 8 9 10 13 15 16 17 
 18 20 21 23 24 25 28 31 33 36 38 39 
 40 43 45 46 48 56 57 58 59 
 23 
 3 8 11 14 18 20 21 22 23 28 29 36 
 37 40 41 42 45 52 54 55 56 59 60 
 35 
 6 7 9 10 12 13 14 17 18 22 23 24 
 25 26 27 29 30 31 34 36 39 40 44 46 
 47 48 49 50 54 55 56 57 58 59 60 
 50 
 1 2 3 4 5 6 7 8 9 10 12 13 
 14 16 18 19 20 21 22 23 25 26 27 29 
 31 32 33 34 35 37 38 39 40 41 42 43 
 44 45 46 47 48 51 52 53 54 55 56 57 
 59 60 
 33 
 1 3 4 8 10 11 14 15 18 19 20 24 
 26 27 30 31 32 33 36 37 39 41 45 47 
 48 49 51 52 53 54 55 57 60 
 25 
 2 6 9 11 12 14 19 22 25 26 30 31 
 33 38 40 41 44 45 51 52 54 55 56 57 
 58 
 19 
 2 5 10 12 16 25 26 27 28 32 37 42 
 45 48 51 52 57 58 60 
 27 
 5 9 14 15 16 17 18 20 22 23 24 26 
 28 31 34 35 36 38 48 49 50 51 52 56 
 58 59 60 
 32 
 2 3 4 5 6 8 9 12 13 16 18 20 
 21 25 27 28 30 31 33 36 38 40 41 42 
 45 47 51 52 55 57 59 60 
 11 
 10 16 18 20 22 23 44 45 48 50 59 
 29 
 1 2 3 4 7 9 12 13 14 15 16 23 
 24 26 30 31 33 35 36 37 39 42 44 46 
 50 54 55 56 58 
 14 
 6 11 18 24 25 26 27 31 33 35 40 45 
 48 58 
 6 
 14 23 38 40 52 56 
 50 
 2 3 4 7 8 9 12 13 15 16 17 18 
 19 20 21 22 24 26 27 28 30 31 32 33 
 34 35 37 38 39 40 41 42 43 44 45 46 
 47 48 49 50 51 52 53 54 55 56 57 58 
 59 60 
 29 
 2 4 6 7 8 10 11 12 15 21 22 23 
 27 28 29 30 31 33 36 37 42 44 45 46 
 48 52 54 55 57 
 19 
 4 6 8 9 13 14 19 29 31 39 40 41 
 44 47 48 50 51 54 55 
 13 
 1 10 17 21 26 28 29 31 38 42 43 46 
 55 
 10 
 2 5 19 20 22 25 36 37 39 44 
 32 
 1 6 9 13 14 15 16 19 20 21 22 23 
 24 25 26 27 29 30 32 36 41 43 44 47 
 48 49 51 52 55 58 59 60 
 25 
 4 6 7 13 15 17 18 21 24 25 26 27 
 28 33 34 35 36 39 41 42 46 49 51 59 
 60 
 19 
 1 3 5 6 9 12 20 28 29 32 35 36 
 37 38 41 49 51 53 56 
 57 
 1 2 3 4 5 6 7 8 9 10 11 12 
 13 14 17 18 19 20 21 22 23 24 25 26 
 27 28 29 30 31 32 33 34 35 36 37 38 
 39 40 41 42 43 44 45 46 47 48 49 51 
 52 53 54 55 56 57 58 59 60 
 20 
 4 5 7 9 10 16 19 21 24 25 27 29 
 37 39 50 51 54 57 59 60 
 2 
 7 45 
 15 
 5 10 13 16 18 22 29 31 33 37 44 45 
 47 52 54 
 